VER
1

OBJSENSE
MIN

VAR
3 1
F 3

PSDVAR
1
3

CON
7 3
L= 2
L+ 3
L- 2

OBJFCOORD
5
0 0 0 2.000000
0 1 0 1.000000
0 1 1 2.000000
0 2 1 1.000000
0 2 2 2.000000

OBJACOORD
1
1 1.000000

FCOORD
9
0 0 0 0 1.000000
0 0 1 1 1.000000
0 0 2 2 1.000000
1 0 0 0 1.000000
1 0 1 0 1.000000
1 0 1 1 1.000000
1 0 2 0 1.000000
1 0 2 1 1.000000
1 0 2 2 1.000000

ACOORD
10
0 1 1.000000
1 0 1.000000
1 2 1.000000
2 0 -1.000000
2 1 1.000000
2 2 -1.000000
3 1 1.000000
4 2 1.000000
5 1 1.000000
6 2 1.000000

BCOORD
4
0 -1.000000
1 -0.500000
5 -1.000000
6 -1.000000